c instance by G2
c solution = 1000001010101000011
c Known solution cost is 1113 
p cnf 19 30
w 69 44 98 88 77 37 29 77 86 27 25 39 29 41 67 71 98 90 21
-15 -1 16 0
-6 14 -9 0
12 -9 18 0
2 -1 19 0
4 -2 -17 0
-1 -12 6 0
-6 15 10 0
11 -9 -19 0
-11 -8 6 0
-19 -11 1 0
7 11 1 0
13 5 -2 0
3 -19 -10 0
-16 -1 -19 0
2 9 17 0
-19 -3 -7 0
8 -4 5 0
18 -11 3 0
4 -5 -13 0
18 -7 -19 0
-5 11 -4 0
-19 12 -4 0
2 -14 15 0
14 -17 8 0
6 13 -1 0
-2 8 -1 0
-7 -16 4 0
-10 -9 13 0
-2 -1 12 0
14 -1 7 0
